(declare-const |havoc:7:17:20| Int)
(declare-const havoc Int)
(declare-const |phi_i:18:19| Int)
(declare-const |havoc:4| Int)
(assert (and (< (- |havoc:4|) 0)
               (or (and (<= (+ havoc (- |havoc:4|)) 0)
                          (= (+ (- |phi_i:18:19|) |havoc:4|) 0))
                     (and (< (+ (- havoc) |havoc:4|) 0)
                            (= (+ |havoc:7:17:20| (- |phi_i:18:19|)) 0)))
               (<= (+ (- |phi_i:18:19|) havoc) 0)
               (not (<= (+ (- |havoc:4|) 1) 0))))
(check-sat)
